% demand
num_movements = 32;
loading_factor = [1850, 1350, 1700, 1700, 1700, 1550, 1250, 1950, 1600, 950, 1700, 1650, 1800, 950, 1400, 1100, 1050, 1600, 1450, 1150, 1000, 1300, 1900, 1750, 1900, 1050, 850, 1650, 900, 800, 800, 900];
pickup_time = [0, 0, 0, 0, 0, 0, 1, 1, 1, 1, 2, 3, 5, 5, 5, 5, 5, 5, 5, 9, 9, 9, 10, 10, 10, 10, 10, 11, 12, 12, 12, 12];
delivery_time = [1, 5, 5, 5, 1, 1, 3, 5, 2, 5, 5, 9, 9, 9, 8, 9, 9, 9, 9, 10, 11, 10, 11, 11, 13, 11, 12, 13, 13, 13, 13, 13];

% transporter definition
total_capacity = 11000;
num_decks = 4;
capacity = [3000, 3000, 1000, 4000];

% ways out of decks
num_ways_out = 2;
paths_out = array3d(decks, ways_out, decks, [
% ways out of deck d1
2, 4, 0, 0, 3, 4, 0, 0, 

% ways out of deck d2
4, 0, 0, 0, 0, 0, 0, 0,	

% ways out of deck d3
4, 0, 0, 0, 0, 0, 0, 0,	

% ways out of deck d4
0, 0, 0, 0,	0, 0, 0, 0,	

]);

